data;

param n := 2;

param p := 3;

param AG :
	1	2	:=
 1	0	0	
 2	0	0	
;

param PI :
	1	2	3	:=
 1	0.5	0.5	0.5	
 2	0.5	0.5	0.5	
;

param CP :
	1	2	3	:=
 1	0.7	0.7	0.7	
 2	0.7	0.7	0.7	
 3	0.7	0.7	0.7	
;

param CA :
	1	2	:=
 1	1.0	1.0	
 2	1.0	1.0	
;

